cost: 718.36
Route 1:           0    6   44   45   32   22    1   33   16    0
Route 2:           0   23    2   30   25    0
Route 3:           0   24    5    9   34   19   47    0
Route 4:           0   26   13   10    3   43   39   38    8    0
Route 5:           0   28   35   46   40   15   14    0
Route 6:           0   29   18   11    0
Route 7:           0   31   27    0
Route 8:           0   48   49   41   12    4   42    0
Route 9:           0   50   37   21   20    7   36   17    0
